N: 2000
R: 1000
Capacities: 489436
------
Total value: 489436
Total weight: 489436
Packed Items: [0, 1, 2, 3, 4, 5, 6, 7, 8, 9, 10, 11, 12, 13, 14, 15, 16, 17, 18, 19, 20, 21, 22, 23, 24, 25, 26, 27, 28, 29, 30, 31, 32, 33, 34, 35, 36, 37, 38, 39, 40, 41, 42, 43, 44, 45, 46, 47, 48, 49, 50, 51, 52, 53, 54, 55, 56, 57, 58, 59, 60, 61, 62, 63, 64, 65, 66, 67, 68, 69, 70, 71, 72, 73, 74, 75, 76, 77, 78, 79, 80, 81, 82, 83, 84, 85, 86, 87, 88, 89, 90, 91, 92, 93, 94, 95, 96, 97, 98, 99, 100, 101, 102, 103, 104, 105, 106, 107, 108, 109, 110, 111, 112, 113, 114, 115, 116, 117, 118, 119, 120, 121, 122, 123, 124, 125, 126, 127, 128, 129, 130, 131, 132, 133, 134, 135, 136, 137, 138, 139, 140, 141, 142, 143, 144, 145, 146, 147, 148, 149, 150, 151, 152, 153, 154, 155, 156, 157, 158, 159, 160, 161, 162, 163, 164, 165, 166, 167, 168, 169, 170, 171, 172, 173, 174, 175, 176, 177, 178, 179, 180, 181, 182, 183, 184, 185, 186, 187, 188, 189, 190, 191, 192, 193, 194, 195, 196, 197, 198, 199, 200, 201, 202, 203, 204, 205, 206, 207, 208, 209, 210, 211, 212, 213, 214, 215, 216, 217, 218, 219, 220, 221, 222, 223, 224, 225, 226, 227, 228, 229, 230, 231, 232, 233, 234, 235, 236, 237, 238, 239, 240, 241, 242, 243, 244, 245, 246, 247, 248, 249, 250, 251, 252, 253, 254, 255, 256, 257, 258, 259, 260, 261, 262, 263, 264, 265, 266, 267, 268, 269, 270, 271, 272, 273, 274, 275, 276, 277, 278, 279, 280, 281, 282, 283, 284, 285, 286, 287, 288, 289, 290, 291, 292, 293, 294, 295, 296, 297, 298, 299, 300, 301, 302, 303, 304, 305, 306, 307, 308, 309, 310, 311, 312, 313, 314, 315, 316, 317, 318, 319, 320, 321, 322, 323, 324, 325, 326, 327, 328, 329, 330, 331, 332, 333, 334, 335, 336, 337, 338, 339, 340, 341, 342, 343, 344, 345, 346, 347, 348, 349, 350, 351, 352, 353, 354, 355, 356, 357, 358, 359, 360, 361, 362, 363, 364, 365, 366, 367, 368, 369, 370, 371, 372, 373, 374, 375, 376, 377, 378, 379, 380, 381, 382, 383, 384, 385, 386, 387, 388, 389, 390, 391, 392, 393, 394, 395, 396, 397, 398, 399, 400, 401, 402, 403, 404, 405, 406, 407, 408, 409, 410, 411, 412, 413, 414, 415, 416, 417, 418, 419, 420, 421, 422, 423, 424, 425, 426, 427, 428, 429, 430, 431, 432, 433, 434, 435, 436, 437, 438, 439, 440, 441, 442, 443, 444, 445, 446, 447, 448, 449, 450, 451, 452, 453, 454, 455, 456, 457, 458, 459, 460, 461, 462, 463, 464, 465, 466, 467, 468, 469, 470, 471, 472, 473, 474, 475, 476, 477, 478, 479, 480, 481, 482, 483, 484, 485, 486, 487, 488, 489, 490, 491, 492, 493, 494, 495, 496, 497, 498, 499, 500, 501, 502, 503, 504, 505, 506, 507, 508, 509, 510, 511, 512, 513, 514, 515, 516, 517, 518, 519, 520, 521, 522, 523, 524, 525, 526, 527, 528, 529, 530, 531, 532, 533, 534, 535, 536, 537, 538, 539, 540, 541, 542, 543, 544, 545, 546, 547, 548, 549, 550, 551, 552, 553, 554, 555, 556, 557, 558, 559, 560, 561, 562, 563, 564, 565, 566, 567, 568, 569, 570, 571, 572, 573, 574, 575, 576, 577, 578, 579, 580, 581, 582, 583, 584, 585, 586, 587, 588, 589, 590, 591, 592, 593, 594, 595, 596, 597, 598, 599, 600, 601, 602, 603, 604, 605, 606, 607, 608, 609, 610, 611, 612, 613, 614, 615, 616, 617, 618, 619, 620, 621, 622, 623, 624, 625, 626, 627, 628, 629, 630, 631, 632, 633, 634, 635, 636, 637, 638, 639, 640, 641, 642, 643, 644, 645, 646, 647, 648, 649, 650, 651, 652, 653, 654, 655, 656, 657, 658, 659, 660, 661, 662, 663, 664, 665, 666, 667, 668, 669, 670, 671, 672, 673, 674, 675, 676, 677, 678, 679, 680, 681, 682, 683, 684, 685, 686, 687, 688, 689, 690, 691, 692, 693, 694, 695, 696, 697, 698, 699, 700, 701, 702, 703, 704, 705, 706, 707, 708, 709, 710, 711, 712, 713, 714, 715, 716, 717, 718, 719, 720, 721, 722, 723, 724, 725, 726, 727, 728, 729, 730, 731, 732, 733, 734, 735, 736, 737, 738, 739, 740, 741, 742, 743, 744, 745, 746, 747, 748, 749, 750, 751, 752, 753, 754, 755, 756, 757, 758, 759, 760, 761, 762, 763, 764, 765, 766, 767, 768, 769, 770, 771, 772, 773, 774, 775, 776, 777, 778, 779, 780, 781, 782, 783, 784, 785, 786, 787, 788, 789, 790, 791, 792, 793, 794, 795, 796, 797, 798, 799, 800, 801, 802, 803, 804, 805, 806, 807, 808, 809, 810, 811, 812, 813, 814, 815, 816, 817, 818, 819, 820, 821, 822, 823, 824, 825, 826, 827, 828, 829, 830, 831, 832, 833, 834, 835, 836, 837, 838, 839, 840, 841, 842, 843, 844, 845, 846, 847, 848, 849, 850, 851, 852, 853, 854, 855, 856, 857, 858, 859, 860, 861, 862, 863, 864, 865, 866, 867, 868, 869, 870, 871, 872, 873, 874, 875, 876, 877, 878, 879, 880, 881, 882, 883, 884, 885, 886, 887, 888, 889, 890, 891, 892, 893, 894, 895, 897, 898, 899, 900, 901, 902, 903, 904, 905, 906, 907, 908, 909, 910, 911, 912, 913, 914, 915, 916, 917, 918, 919, 920, 921, 922, 923, 924, 925, 926, 927, 928, 929, 930, 931, 933, 934, 935, 936, 937, 938, 939, 940, 941, 942, 943, 944, 945, 946, 947, 950, 951, 952, 953, 954, 955, 956, 957, 958, 959, 960, 961, 963, 964, ]
Packed Weights: [227, 963, 127, 705, 86, 248, 1000, 210, 642, 460, 454, 495, 193, 831, 90, 235, 20, 267, 408, 903, 380, 114, 259, 992, 64, 621, 378, 661, 339, 692, 498, 650, 902, 582, 143, 65, 947, 489, 194, 947, 579, 729, 881, 286, 357, 879, 135, 765, 98, 691, 703, 950, 844, 504, 198, 151, 529, 510, 72, 904, 508, 702, 220, 244, 12, 344, 267, 424, 377, 835, 892, 176, 397, 167, 664, 975, 202, 767, 301, 14, 765, 342, 171, 436, 232, 411, 447, 418, 589, 289, 96, 86, 107, 521, 361, 808, 505, 709, 981, 63, 17, 141, 387, 574, 744, 352, 965, 3, 836, 211, 876, 34, 966, 760, 991, 581, 178, 970, 442, 84, 606, 498, 474, 155, 123, 581, 453, 127, 440, 726, 716, 472, 394, 361, 226, 198, 447, 109, 726, 709, 612, 23, 365, 433, 94, 968, 756, 503, 706, 201, 230, 526, 744, 648, 7, 614, 909, 744, 928, 982, 224, 297, 548, 977, 370, 942, 851, 517, 626, 958, 784, 296, 846, 196, 370, 959, 848, 312, 291, 614, 843, 685, 937, 729, 821, 605, 363, 428, 490, 529, 839, 269, 69, 734, 271, 420, 118, 830, 274, 292, 805, 505, 278, 889, 412, 362, 966, 791, 748, 250, 814, 597, 830, 368, 781, 794, 388, 655, 781, 994, 921, 787, 137, 611, 686, 88, 463, 869, 906, 926, 93, 608, 866, 653, 320, 39, 920, 860, 654, 367, 829, 815, 725, 600, 320, 297, 358, 327, 521, 114, 722, 349, 160, 255, 390, 432, 783, 100, 223, 294, 177, 750, 110, 51, 556, 737, 826, 560, 327, 882, 737, 479, 563, 937, 998, 932, 133, 327, 408, 169, 763, 61, 888, 586, 614, 415, 937, 579, 897, 923, 693, 984, 490, 367, 845, 528, 309, 681, 476, 128, 838, 500, 972, 534, 937, 290, 218, 527, 767, 825, 648, 125, 395, 35, 372, 945, 348, 699, 622, 144, 689, 80, 185, 580, 128, 965, 426, 631, 966, 109, 1000, 40, 602, 656, 986, 359, 947, 651, 477, 170, 236, 366, 347, 372, 809, 375, 629, 39, 141, 710, 891, 314, 33, 233, 361, 367, 562, 302, 648, 786, 784, 742, 585, 261, 842, 290, 861, 448, 630, 500, 654, 342, 579, 737, 362, 601, 457, 471, 384, 547, 710, 174, 147, 824, 89, 794, 760, 218, 637, 254, 882, 198, 116, 37, 719, 212, 315, 977, 737, 738, 576, 641, 12, 813, 330, 855, 415, 912, 1, 981, 96, 511, 482, 987, 717, 982, 906, 426, 148, 146, 710, 952, 666, 347, 598, 657, 254, 694, 200, 28, 65, 489, 697, 226, 397, 694, 264, 523, 603, 407, 209, 693, 702, 189, 808, 656, 867, 781, 495, 716, 315, 654, 83, 346, 507, 886, 684, 910, 870, 971, 618, 617, 469, 222, 797, 611, 162, 240, 221, 723, 598, 201, 688, 564, 267, 445, 993, 141, 237, 594, 840, 922, 400, 769, 119, 387, 857, 666, 447, 599, 488, 548, 885, 976, 201, 756, 945, 608, 501, 373, 485, 581, 612, 114, 999, 276, 548, 199, 632, 75, 336, 385, 313, 488, 159, 491, 796, 629, 971, 951, 478, 468, 763, 880, 541, 668, 691, 514, 509, 402, 449, 475, 803, 160, 118, 924, 511, 697, 916, 737, 567, 953, 625, 447, 183, 160, 793, 897, 358, 530, 679, 607, 276, 912, 552, 715, 689, 439, 702, 190, 548, 652, 630, 293, 182, 102, 124, 185, 486, 569, 707, 438, 768, 30, 349, 120, 517, 573, 584, 444, 369, 329, 107, 194, 487, 568, 101, 846, 28, 127, 449, 333, 521, 690, 595, 786, 471, 677, 418, 127, 75, 182, 444, 277, 561, 668, 920, 150, 958, 2, 890, 985, 366, 799, 506, 563, 858, 942, 301, 220, 917, 592, 902, 222, 850, 160, 147, 289, 928, 388, 441, 289, 75, 442, 497, 335, 731, 310, 980, 910, 579, 102, 560, 622, 651, 426, 726, 997, 703, 42, 629, 624, 546, 939, 53, 18, 723, 101, 138, 818, 362, 884, 801, 663, 359, 83, 977, 871, 918, 509, 281, 628, 420, 192, 113, 408, 149, 268, 978, 934, 886, 513, 763, 164, 621, 975, 791, 987, 628, 304, 21, 271, 829, 528, 624, 803, 296, 141, 888, 601, 28, 697, 722, 762, 132, 274, 724, 670, 347, 969, 303, 892, 136, 458, 993, 695, 758, 884, 628, 546, 825, 532, 959, 762, 2, 288, 885, 118, 16, 582, 694, 981, 963, 627, 700, 531, 850, 693, 129, 627, 51, 336, 334, 921, 221, 377, 565, 206, 454, 297, 722, 794, 583, 868, 492, 747, 95, 388, 323, 887, 499, 377, 667, 955, 831, 804, 667, 804, 562, 389, 317, 263, 337, 501, 862, 237, 392, 262, 482, 62, 623, 859, 912, 359, 169, 731, 756, 191, 61, 670, 380, 523, 565, 884, 126, 260, 35, 689, 80, 854, 610, 513, 268, 870, 115, 581, 830, 658, 50, 112, 286, 731, 138, 956, 886, 573, 877, 636, 161, 405, 25, 439, 990, 404, 665, 360, 675, 335, 914, 411, 270, 430, 76, 330, 739, 405, 447, 235, 825, 885, 409, 2, 428, 875, 652, 229, 106, 887, 80, 616, 596, 183, 442, 863, 998, 75, 32, 260, 51, 929, 81, 368, 857, 464, 234, 63, 227, 311, 848, 434, 553, 263, 408, 928, 115, 702, 314, 419, 721, 350, 489, 488, 485, 74, 393, 380, 420, 287, 449, 741, 74, 76, 536, 578, 800, 33, 608, 216, 494, 295, 88, 561, 316, 487, 870, 450, 843, 293, 182, 403, 298, 728, 121, 724, 220, 409, 216, 145, 139, 987, 100, 925, 461, 883, 180, 584, 683, 307, 614, 904, 417, 610, 782, 455, 840, 356, 452, 433, 95, 72, 638, 890, 184, 905, 327, 418, 576, 885, 636, 130, 662, 130, 470, 750, 388, 318, 321, 291, 727, 392, ]
Time Consuming: 0.008001089096069336